182 92 195 87 193 28 190 98 157 9 8 54 90 79 137 58 113 95 173 52 91 114 124 78 194 178 15 40 127 67 51 152 110 88 165 11 19 0 192 96 14 167 16 22 80 64 13 18 135 75 48 74 158 68 156 149 59 66 184 125 134 179 181 46 189 60 174 77 30 196 175 138 197 102 105 101 27 117 140 170 107 128 33 4 169 7 100 109 71 108 69 65 56 126 151 55 115 25 162 17 185 183 145 166 21 84 129 155 45 73 89 163 132 130 116 24 186 168 180 26 93 23 43 176 177 147 142 44 62 122 118 36 10 82 3 61 50 143 99 133 94 146 153 97 161 6 85 1 47 144 2 34 139 106 171 49 119 199 136 70 20 104 120 160 148 42 5 172 37 57 198 154 164 191 121 76 72 12 38 112 141 86 123 35 131 159 53 81 39 188 83 32 150 29 63 41 31 111 187 103